Maximize
  0.013654582075508 Z_372_0_0 + 0.7539803712421925 Z_372_0_1
   + 0.0103790893475316 Z_372_0_2 + 0.00939909529596092 Z_372_0_3
   + 0.1125868620388069 Z_372_0_4 + 0.7160216289464876 Z_152_12_0
   + 0.00234651600229933 Z_152_12_1 + 0.00183285768684377 Z_152_12_2
   + 0.00122451612958278 Z_152_12_3 + 0.1785744812347866 Z_152_12_4
   + 0.0430282374902999 Z_152_2_0 + 0.2580094165532005 Z_152_2_1
   + 0.010323628551248 Z_152_2_2 + 0.0231283302965272 Z_152_2_3
   + 0.5655103871087245 Z_152_2_4 + 0.00916509650279096 Z_152_3_0
   + 0.00602054058258636 Z_152_3_1 + 0.0632461848149435 Z_152_3_2
   + 0.0620206003582415 Z_152_3_3 + 0.7595475777414378 Z_152_3_4
   + 0.1456538494811829 Z_152_5_0 + 0.3648887640349041 Z_152_5_1
   + 0.1096717060815146 Z_152_5_2 + 0.0424415227981274 Z_152_5_3
   + 0.2373441576042709 Z_152_5_4 + 6.936237733446485e-04 Z_152_1_0
   + 0.00110189632219282 Z_152_1_1 + 0.4207524533351821 Z_152_1_2
   + 0.0015269440030433 Z_152_1_3 + 0.4759250825662371 Z_152_1_4
   + 0.0430282374902999 Z_152_4_0 + 0.2580094165532005 Z_152_4_1
   + 0.010323628551248 Z_152_4_2 + 0.0231283302965272 Z_152_4_3
   + 0.5655103871087245 Z_152_4_4 + 6.936237733446485e-04 Z_152_0_0
   + 0.00110189632219282 Z_152_0_1 + 0.4207524533351821 Z_152_0_2
   + 0.0015269440030433 Z_152_0_3 + 0.4759250825662371 Z_152_0_4
   + 8.09259e-05 Z_164_0_0 + 0.00459763511375422 Z_164_0_1
   + 0.8682660823244981 Z_164_0_2 + 7.8716126265001034e-04 Z_164_0_3
   + 0.026268195354033 Z_164_0_4 + 0.00226957950253325 Z_80_4_0
   + 0.0490405632557042 Z_80_4_1 + 0.0741542115269672 Z_80_4_2
   + 0.00155935661555175 Z_80_4_3 + 0.7729762890992437 Z_80_4_4
   + 0.00226957950253325 Z_80_3_0 + 0.0490405632557042 Z_80_3_1
   + 0.0741542115269672 Z_80_3_2 + 0.00155935661555175 Z_80_3_3
   + 0.7729762890992437 Z_80_3_4 + 0.00722155354467004 Z_80_2_0
   + 0.00519332634651995 Z_80_2_1 + 0.2383749285850791 Z_80_2_2
   + 0.00438695305123644 Z_80_2_3 + 0.6448232384724945 Z_80_2_4
   + 0.00137737227705865 Z_80_1_0 + 0.000674464 Z_80_1_1
   + 0.00620372 Z_80_1_2 + 0.00715784 Z_80_1_3
   + 0.8845866036618083 Z_80_1_4 + 0.011353876239673 Z_80_6_0
   + 0.1405063338328488 Z_80_6_1 + 0.00602132702868094 Z_80_6_2
   + 0.0167412466552798 Z_80_6_3 + 0.7253772162435173 Z_80_6_4
   + 0.0500016372676001 Z_80_5_0 + 0.2228701251670784 Z_80_5_1
   + 0.00389245475398831 Z_80_5_2 + 0.0305314850898675 Z_80_5_3
   + 0.5927042977214656 Z_80_5_4 + 0.00189014454289535 Z_124_0_0
   + 0.000972692 Z_124_0_1 + 0.0241238240096882 Z_124_0_2
   + 0.7641574838208322 Z_124_0_3 + 0.1088558557173065 Z_124_0_4
   + 0.0067777958380125 Z_177_0_0 + 0.7275887403504995 Z_177_0_1
   + 0.0107762474733932 Z_177_0_2 + 0.0405213797954813 Z_177_0_3
   + 0.1143358365426134 Z_177_0_4 + 5.64763e-05 Z_220_0_0
   + 0.00237181802884091 Z_220_0_1 + 0.7816317578905978 Z_220_0_2
   + 0.000731506 Z_220_0_3 + 0.1152084416731882 Z_220_0_4
   + 0.2170990254700795 Z_165_0_0 + 0.4220165743850988 Z_165_0_1
   + 0.00209073677603214 Z_165_0_2 + 6.99566e-05 Z_165_0_3
   + 0.2587237067212375 Z_165_0_4 + 0.0133169991215528 Z_24_0_0
   + 0.6289460134077678 Z_24_0_1 + 0.0132933544172046 Z_24_0_2
   + 9.1351255046849262e-04 Z_24_0_3 + 0.2435301205030064 Z_24_0_4
   + 0.00100128570879392 Z_180_1_0 + 8.5696657875401891e-04 Z_180_1_1
   + 0.6632241476567082 Z_180_1_2 + 0.00265549602521749 Z_180_1_3
   + 0.2322621040305264 Z_180_1_4 + 0.7323373230094909 Z_180_0_0
   + 0.0241703679540984 Z_180_0_1 + 0.0176837777270734 Z_180_0_2
   + 0.0225941837788421 Z_180_0_3 + 0.1032143475304951 Z_180_0_4
   + 4.9122943263714804e-04 Z_21_1_0 + 8.5013681580397107e-04 Z_21_1_1
   + 0.6660379014774037 Z_21_1_2 + 8.1122418725345161e-04 Z_21_1_3
   + 0.2318095080869018 Z_21_1_4 + 0.00516450683321206 Z_432_7_0
   + 0.0882530222647374 Z_432_7_1 + 0.0183818748231726 Z_432_7_2
   + 0.00924671424577008 Z_432_7_3 + 0.7789538818331079 Z_432_7_4
   + 0.00516450683321206 Z_432_6_0 + 0.0882530222647374 Z_432_6_1
   + 0.0183818748231726 Z_432_6_2 + 0.00924671424577008 Z_432_6_3
   + 0.7789538818331079 Z_432_6_4 + 0.00708262677761104 Z_432_3_0
   + 0.0058403842862544 Z_432_3_1 + 0.222419688291101 Z_432_3_2
   + 0.00733427855958689 Z_432_3_3 + 0.6573230220854467 Z_432_3_4
   + 0.00270444642465246 Z_432_0_0 + 0.664294886193209 Z_432_0_1
   + 0.00532475294943266 Z_432_0_2 + 0.0453955093007163 Z_432_0_3
   + 0.1822804051319896 Z_432_0_4 + 0.000615866 Z_432_5_0
   + 0.00713754074538217 Z_432_5_1 + 0.1322710935204362 Z_432_5_2
   + 0.00070976 Z_432_5_3 + 0.7592657396950639 Z_432_5_4
   + 0.0013038221129784 Z_432_2_0 + 0.00667308556002296 Z_432_2_1
   + 0.00330139113684869 Z_432_2_2 + 0.00514106413575846 Z_432_2_3
   + 0.8835806370543914 Z_432_2_4 + 0.00516450683321206 Z_432_4_0
   + 0.0882530222647374 Z_432_4_1 + 0.0183818748231726 Z_432_4_2
   + 0.00924671424577008 Z_432_4_3 + 0.7789538818331079 Z_432_4_4
   + 0.00162386602660451 Z_430_0_0 + 0.6919647098911834 Z_430_0_1
   + 0.00112178403457692 Z_430_0_2 + 0.00159933427764187 Z_430_0_3
   + 0.2036903057699933 Z_430_0_4 + 0.6416967855901698 Z_69_0_0
   + 0.0609188277491833 Z_69_0_1 + 0.00425200056475789 Z_69_0_2
   + 0.0455357312073161 Z_69_0_3 + 0.1475966548885728 Z_69_0_4
   + 1.6465429570063154e-04 Z_69_1_0 + 0.00372584881786523 Z_69_1_1
   + 0.8020696853460936 Z_69_1_2 + 5.034914488394218e-04 Z_69_1_3
   + 0.0935363200915011 Z_69_1_4 + 0.0117295868232691 Z_321_0_0
   + 0.5996906006099099 Z_321_0_1 + 7.3811069520746857e-04 Z_321_0_2
   + 0.0201050880858385 Z_321_0_3 + 0.267736613785775 Z_321_0_4
   + 0.00739602639282796 Z_174_1_0 + 0.00446028084861346 Z_174_1_1
   + 0.3186416777337497 Z_174_1_2 + 0.0126514097314913 Z_174_1_3
   + 0.5568506052933175 Z_174_1_4 + 9.7403030743240166e-04 Z_174_2_0
   + 4.4843180493186428e-04 Z_174_2_1 + 0.00609563871471037 Z_174_2_2
   + 0.0109929058807748 Z_174_2_3 + 0.8814889932921505 Z_174_2_4
   + 0.00103348316547712 Z_174_0_0 + 0.00135256975310009 Z_174_0_1
   + 0.029183493295573 Z_174_0_2 + 0.6960891306693056 Z_174_0_3
   + 0.1723413231165442 Z_174_0_4 + 0.00103348316547712 Z_174_3_0
   + 0.00135256975310009 Z_174_3_1 + 0.029183493295573 Z_174_3_2
   + 0.6960891306693056 Z_174_3_3 + 0.1723413231165442 Z_174_3_4
   + 0.00103348316547712 Z_174_5_0 + 0.00135256975310009 Z_174_5_1
   + 0.029183493295573 Z_174_5_2 + 0.6960891306693056 Z_174_5_3
   + 0.1723413231165442 Z_174_5_4 + 0.0742747401049141 Z_174_4_0
   + 0.0621923574246276 Z_174_4_1 + 0.0160368252203127 Z_174_4_2
   + 0.0797134705627713 Z_174_4_3 + 0.6677826066873744 Z_174_4_4
   + 0.00664812963141389 Z_556_4_0 + 0.00519362665804042 Z_556_4_1
   + 0.0111203407747897 Z_556_4_2 + 0.0740772650026206 Z_556_4_3
   + 0.8029606379331354 Z_556_4_4 + 0.00987872284007004 Z_556_3_0
   + 0.0159217298249757 Z_556_3_1 + 0.00140273637091037 Z_556_3_2
   + 0.6360271898721723 Z_556_3_3 + 0.2367696210918715 Z_556_3_4
   + 0.00471236210481498 Z_556_1_0 + 0.00514889129436042 Z_556_1_1
   + 0.00757832589232141 Z_556_1_2 + 0.0644056938833821 Z_556_1_3
   + 0.8181547268251211 Z_556_1_4 + 4.4513755401520228e-04 Z_556_0_0
   + 1.7601060422089103e-04 Z_556_0_1 + 0.00327364686297119 Z_556_0_2
   + 0.0267081807692893 Z_556_0_3 + 0.8693970242095033 Z_556_0_4
   + 0.00987872284007004 Z_556_5_0 + 0.0159217298249757 Z_556_5_1
   + 0.00140273637091037 Z_556_5_2 + 0.6360271898721723 Z_556_5_3
   + 0.2367696210918715 Z_556_5_4 + 0.00496480637556151 Z_556_2_0
   + 0.0703685808344193 Z_556_2_1 + 0.00408657099464888 Z_556_2_2
   + 0.1484904595043835 Z_556_2_3 + 0.6720895822909868 Z_556_2_4
   + 1.4728583685109589e-04 Z_56_4_0 + 0.00129570126339104 Z_56_4_1
   + 0.0910466150710713 Z_56_4_2 + 0.7746227370412205 Z_56_4_3
   + 0.0328876607874662 Z_56_4_4 + 0.0249689231607924 Z_56_3_0
   + 0.0112596567969566 Z_56_3_1 + 0.0116765599048063 Z_56_3_2
   + 0.0394083410021553 Z_56_3_3 + 0.8126865191352893 Z_56_3_4
   + 0.00619446378266072 Z_56_1_0 + 0.1860829875370179 Z_56_1_1
   + 0.0109130198161719 Z_56_1_2 + 0.2946929572013182 Z_56_1_3
   + 0.4021165716628314 Z_56_1_4 + 0.000468362 Z_56_2_0
   + 0.00245765719687875 Z_56_2_1 + 0.158656724802875 Z_56_2_2
   + 0.00282493936633575 Z_56_2_3 + 0.735592316567831 Z_56_2_4
   + 1.4728583685109589e-04 Z_56_0_0 + 0.00129570126339104 Z_56_0_1
   + 0.0910466150710713 Z_56_0_2 + 0.7746227370412205 Z_56_0_3
   + 0.0328876607874662 Z_56_0_4 + 0.00115440166597012 Z_398_1_0
   + 0.00120463636668909 Z_398_1_1 + 0.7142357403300277 Z_398_1_2
   + 0.00516457 Z_398_1_3 + 0.1782406515975458 Z_398_1_4
   + 0.7160216289464876 Z_427_12_0 + 0.00234651600229933 Z_427_12_1
   + 0.00183285768684377 Z_427_12_2 + 0.00122451612958278 Z_427_12_3
   + 0.1785744812347866 Z_427_12_4 + 0.0430282374902999 Z_427_2_0
   + 0.2580094165532005 Z_427_2_1 + 0.010323628551248 Z_427_2_2
   + 0.0231283302965272 Z_427_2_3 + 0.5655103871087245 Z_427_2_4
   + 0.00916509650279096 Z_427_3_0 + 0.00602054058258636 Z_427_3_1
   + 0.0632461848149435 Z_427_3_2 + 0.0620206003582415 Z_427_3_3
   + 0.7595475777414378 Z_427_3_4 + 0.1456538494811829 Z_427_5_0
   + 0.3648887640349041 Z_427_5_1 + 0.1096717060815146 Z_427_5_2
   + 0.0424415227981274 Z_427_5_3 + 0.2373441576042709 Z_427_5_4
   + 6.936237733446485e-04 Z_427_1_0 + 0.00110189632219282 Z_427_1_1
   + 0.4207524533351821 Z_427_1_2 + 0.0015269440030433 Z_427_1_3
   + 0.4759250825662371 Z_427_1_4 + 0.0430282374902999 Z_427_4_0
   + 0.2580094165532005 Z_427_4_1 + 0.010323628551248 Z_427_4_2
   + 0.0231283302965272 Z_427_4_3 + 0.5655103871087245 Z_427_4_4
   + 6.936237733446485e-04 Z_427_0_0 + 0.00110189632219282 Z_427_0_1
   + 0.4207524533351821 Z_427_0_2 + 0.0015269440030433 Z_427_0_3
   + 0.4759250825662371 Z_427_0_4 + 0.00847883671734219 Z_157_0_0
   + 0.00787548442726425 Z_157_0_1 + 0.00474481294358616 Z_157_0_2
   + 0.6058850994329673 Z_157_0_3 + 0.2730157664788401 Z_157_0_4
   + 0.1789369042243862 Z_382_5_0 + 0.1143438422277313 Z_382_5_1
   + 0.00357956028617112 Z_382_5_2 + 0.128294509614062 Z_382_5_3
   + 0.4748451836476494 Z_382_5_4 + 0.00721173398436604 Z_382_1_0
   + 0.0163017607132265 Z_382_1_1 + 0.1273410025654314 Z_382_1_2
   + 0.026106768791608 Z_382_1_3 + 0.723038733945368 Z_382_1_4
   + 9.7638474665453774e-04 Z_382_2_0 + 0.000449106 Z_382_2_1
   + 0.00592504632351868 Z_382_2_2 + 0.00972857535150449 Z_382_2_3
   + 0.8829208875727094 Z_382_2_4 + 9.41132e-05 Z_382_6_0
   + 0.00156534747475433 Z_382_6_1 + 0.00981942515772331 Z_382_6_2
   + 0.6790920163610782 Z_382_6_3 + 0.2094290977616445 Z_382_6_4
   + 9.41132e-05 Z_382_3_0 + 0.00156534747475433 Z_382_3_1
   + 0.00981942515772331 Z_382_3_2 + 0.6790920163610782 Z_382_3_3
   + 0.2094290977616445 Z_382_3_4 + 9.41132e-05 Z_382_0_0
   + 0.00156534747475433 Z_382_0_1 + 0.00981942515772331 Z_382_0_2
   + 0.6790920163610782 Z_382_0_3 + 0.2094290977616445 Z_382_0_4
   + 0.00192724477223144 Z_382_4_0 + 0.0212285390046932 Z_382_4_1
   + 0.0013234508663991 Z_382_4_2 + 0.0971732432111334 Z_382_4_3
   + 0.7783475221455429 Z_382_4_4 + 0.00110552740209891 Z_394_0_0
   + 0.00166128347980758 Z_394_0_1 + 0.00712168195433493 Z_394_0_2
   + 0.7164472111962042 Z_394_0_3 + 0.1736642959675543 Z_394_0_4
   + 7.7205152855775718e-04 Z_676_0_0 + 0.00537286096220658 Z_676_0_1
   + 0.00172632829324505 Z_676_0_2 + 0.6804270256541592 Z_676_0_3
   + 0.2117017335618313 Z_676_0_4 + 0.00153682656768012 Z_426_1_0
   + 0.00203175317448771 Z_426_1_1 + 0.3711357613692002 Z_426_1_2
   + 0.00945165646909433 Z_426_1_3 + 0.5158440024195377 Z_426_1_4
   + 0.00396582554148617 Z_655_0_0 + 0.7624816221744506 Z_655_0_1
   + 0.00205632890459743 Z_655_0_2 + 0.0509502429331346 Z_655_0_3
   + 0.0805459804463316 Z_655_0_4 + 0.00878800827482714 Z_111_4_0
   + 0.1431959091663118 Z_111_4_1 + 0.00136151206515041 Z_111_4_2
   + 0.00902361764534124 Z_111_4_3 + 0.7376309528483694 Z_111_4_4
   + 0.0111033069507277 Z_111_2_0 + 0.0130906265675875 Z_111_2_1
   + 0.0621419468113508 Z_111_2_2 + 1.7837032709375653e-04 Z_111_2_3
   + 0.8134857493432404 Z_111_2_4 + 0.053485539740234 Z_111_5_0
   + 0.0293548024114539 Z_111_5_1 + 0.00880879285603375 Z_111_5_2
   + 0.00874238829879211 Z_111_5_3 + 0.7996084766934862 Z_111_5_4
   + 0.00115828977933118 Z_111_3_0 + 0.00154795868544787 Z_111_3_1
   + 0.0266834059656073 Z_111_3_2 + 0.00416002449134251 Z_111_3_3
   + 0.8664503210782712 Z_111_3_4 + 0.0101535860531258 Z_111_0_0
   + 0.6751011682822332 Z_111_0_1 + 0.00164250456796707 Z_111_0_2
   + 0.00307464510805194 Z_111_0_3 + 0.2100280959886221 Z_111_0_4
   + 6.39532e-05 Z_111_1_0 + 0.00161760063246563 Z_111_1_1
   + 0.0177463968900126 Z_111_1_2 + 1.7495278851961459e-04 Z_111_1_3
   + 0.8803970964685864 Z_111_1_4 + 0.00739129602832967 Z_336_0_0
   + 0.8271208223255473 Z_336_0_1 + 0.00326060260212733 Z_336_0_2
   + 0.00907189212406352 Z_336_0_3 + 0.0531553869199321 Z_336_0_4
   + 8.70816e-05 Z_70_0_0 + 0.0101812037382948 Z_70_0_1
   + 0.7986285090594325 Z_70_0_2 + 0.000454563 Z_70_0_3
   + 0.0906486424853027 Z_70_0_4 + 0.00256825782656357 Z_231_1_0
   + 0.00323685927322787 Z_231_1_1 + 0.00100555794294838 Z_231_1_2
   + 0.1213399620275041 Z_231_1_3 + 0.771849362929756 Z_231_1_4
   + 0.00111151390011208 Z_231_0_0 + 9.9483911278519456e-04 Z_231_0_1
   + 0.0115517596302906 Z_231_0_2 + 0.0213614385732585 Z_231_0_3
   + 0.8649804487835537 Z_231_0_4 + 0.00596009410215411 Z_231_2_0
   + 0.0133651568945439 Z_231_2_1 + 0.00121808153681983 Z_231_2_2
   + 0.5302715142005995 Z_231_2_3 + 0.3491851532658826 Z_231_2_4
   + 1.5997767113717822e-04 Z_341_0_0 + 0.00154792398336545 Z_341_0_1
   + 0.042964586696834 Z_341_0_2 + 0.8033383891630721 Z_341_0_3
   + 0.0519891224855911 Z_341_0_4 + 0.0143441787990058 Z_78_0_0
   + 0.7306514190767444 Z_78_0_1 + 8.7406953263639603e-04 Z_78_0_2
   + 0.00297971829555364 Z_78_0_3 + 0.1511506142960598 Z_78_0_4
Subject To
 constraint1_3720: Z_372_0_0 + Z_372_0_1 + Z_372_0_2 + Z_372_0_3
   + Z_372_0_4 <= 1
 constraint1_15212: Z_152_12_0 + Z_152_12_1 + Z_152_12_2 + Z_152_12_3
   + Z_152_12_4 <= 1
 constraint1_1522: Z_152_2_0 + Z_152_2_1 + Z_152_2_2 + Z_152_2_3
   + Z_152_2_4 <= 1
 constraint1_1523: Z_152_3_0 + Z_152_3_1 + Z_152_3_2 + Z_152_3_3
   + Z_152_3_4 <= 1
 constraint1_1525: Z_152_5_0 + Z_152_5_1 + Z_152_5_2 + Z_152_5_3
   + Z_152_5_4 <= 1
 constraint1_1521: Z_152_1_0 + Z_152_1_1 + Z_152_1_2 + Z_152_1_3
   + Z_152_1_4 <= 1
 constraint1_1524: Z_152_4_0 + Z_152_4_1 + Z_152_4_2 + Z_152_4_3
   + Z_152_4_4 <= 1
 constraint1_1520: Z_152_0_0 + Z_152_0_1 + Z_152_0_2 + Z_152_0_3
   + Z_152_0_4 <= 1
 constraint1_1640: Z_164_0_0 + Z_164_0_1 + Z_164_0_2 + Z_164_0_3
   + Z_164_0_4 <= 1
 constraint1_804: Z_80_4_0 + Z_80_4_1 + Z_80_4_2 + Z_80_4_3 + Z_80_4_4
   <= 1
 constraint1_803: Z_80_3_0 + Z_80_3_1 + Z_80_3_2 + Z_80_3_3 + Z_80_3_4
   <= 1
 constraint1_802: Z_80_2_0 + Z_80_2_1 + Z_80_2_2 + Z_80_2_3 + Z_80_2_4
   <= 1
 constraint1_801: Z_80_1_0 + Z_80_1_1 + Z_80_1_2 + Z_80_1_3 + Z_80_1_4
   <= 1
 constraint1_806: Z_80_6_0 + Z_80_6_1 + Z_80_6_2 + Z_80_6_3 + Z_80_6_4
   <= 1
 constraint1_805: Z_80_5_0 + Z_80_5_1 + Z_80_5_2 + Z_80_5_3 + Z_80_5_4
   <= 1
 constraint1_1240: Z_124_0_0 + Z_124_0_1 + Z_124_0_2 + Z_124_0_3
   + Z_124_0_4 <= 1
 constraint1_1770: Z_177_0_0 + Z_177_0_1 + Z_177_0_2 + Z_177_0_3
   + Z_177_0_4 <= 1
 constraint1_2200: Z_220_0_0 + Z_220_0_1 + Z_220_0_2 + Z_220_0_3
   + Z_220_0_4 <= 1
 constraint1_1650: Z_165_0_0 + Z_165_0_1 + Z_165_0_2 + Z_165_0_3
   + Z_165_0_4 <= 1
 constraint1_240: Z_24_0_0 + Z_24_0_1 + Z_24_0_2 + Z_24_0_3 + Z_24_0_4
   <= 1
 constraint1_1801: Z_180_1_0 + Z_180_1_1 + Z_180_1_2 + Z_180_1_3
   + Z_180_1_4 <= 1
 constraint1_1800: Z_180_0_0 + Z_180_0_1 + Z_180_0_2 + Z_180_0_3
   + Z_180_0_4 <= 1
 constraint1_211: Z_21_1_0 + Z_21_1_1 + Z_21_1_2 + Z_21_1_3 + Z_21_1_4
   <= 1
 constraint1_4327: Z_432_7_0 + Z_432_7_1 + Z_432_7_2 + Z_432_7_3
   + Z_432_7_4 <= 1
 constraint1_4326: Z_432_6_0 + Z_432_6_1 + Z_432_6_2 + Z_432_6_3
   + Z_432_6_4 <= 1
 constraint1_4323: Z_432_3_0 + Z_432_3_1 + Z_432_3_2 + Z_432_3_3
   + Z_432_3_4 <= 1
 constraint1_4320: Z_432_0_0 + Z_432_0_1 + Z_432_0_2 + Z_432_0_3
   + Z_432_0_4 <= 1
 constraint1_4325: Z_432_5_0 + Z_432_5_1 + Z_432_5_2 + Z_432_5_3
   + Z_432_5_4 <= 1
 constraint1_4322: Z_432_2_0 + Z_432_2_1 + Z_432_2_2 + Z_432_2_3
   + Z_432_2_4 <= 1
 constraint1_4324: Z_432_4_0 + Z_432_4_1 + Z_432_4_2 + Z_432_4_3
   + Z_432_4_4 <= 1
 constraint1_4300: Z_430_0_0 + Z_430_0_1 + Z_430_0_2 + Z_430_0_3
   + Z_430_0_4 <= 1
 constraint1_690: Z_69_0_0 + Z_69_0_1 + Z_69_0_2 + Z_69_0_3 + Z_69_0_4
   <= 1
 constraint1_691: Z_69_1_0 + Z_69_1_1 + Z_69_1_2 + Z_69_1_3 + Z_69_1_4
   <= 1
 constraint1_3210: Z_321_0_0 + Z_321_0_1 + Z_321_0_2 + Z_321_0_3
   + Z_321_0_4 <= 1
 constraint1_1741: Z_174_1_0 + Z_174_1_1 + Z_174_1_2 + Z_174_1_3
   + Z_174_1_4 <= 1
 constraint1_1742: Z_174_2_0 + Z_174_2_1 + Z_174_2_2 + Z_174_2_3
   + Z_174_2_4 <= 1
 constraint1_1740: Z_174_0_0 + Z_174_0_1 + Z_174_0_2 + Z_174_0_3
   + Z_174_0_4 <= 1
 constraint1_1743: Z_174_3_0 + Z_174_3_1 + Z_174_3_2 + Z_174_3_3
   + Z_174_3_4 <= 1
 constraint1_1745: Z_174_5_0 + Z_174_5_1 + Z_174_5_2 + Z_174_5_3
   + Z_174_5_4 <= 1
 constraint1_1744: Z_174_4_0 + Z_174_4_1 + Z_174_4_2 + Z_174_4_3
   + Z_174_4_4 <= 1
 constraint1_5564: Z_556_4_0 + Z_556_4_1 + Z_556_4_2 + Z_556_4_3
   + Z_556_4_4 <= 1
 constraint1_5563: Z_556_3_0 + Z_556_3_1 + Z_556_3_2 + Z_556_3_3
   + Z_556_3_4 <= 1
 constraint1_5561: Z_556_1_0 + Z_556_1_1 + Z_556_1_2 + Z_556_1_3
   + Z_556_1_4 <= 1
 constraint1_5560: Z_556_0_0 + Z_556_0_1 + Z_556_0_2 + Z_556_0_3
   + Z_556_0_4 <= 1
 constraint1_5565: Z_556_5_0 + Z_556_5_1 + Z_556_5_2 + Z_556_5_3
   + Z_556_5_4 <= 1
 constraint1_5562: Z_556_2_0 + Z_556_2_1 + Z_556_2_2 + Z_556_2_3
   + Z_556_2_4 <= 1
 constraint1_564: Z_56_4_0 + Z_56_4_1 + Z_56_4_2 + Z_56_4_3 + Z_56_4_4
   <= 1
 constraint1_563: Z_56_3_0 + Z_56_3_1 + Z_56_3_2 + Z_56_3_3 + Z_56_3_4
   <= 1
 constraint1_561: Z_56_1_0 + Z_56_1_1 + Z_56_1_2 + Z_56_1_3 + Z_56_1_4
   <= 1
 constraint1_562: Z_56_2_0 + Z_56_2_1 + Z_56_2_2 + Z_56_2_3 + Z_56_2_4
   <= 1
 constraint1_560: Z_56_0_0 + Z_56_0_1 + Z_56_0_2 + Z_56_0_3 + Z_56_0_4
   <= 1
 constraint1_3981: Z_398_1_0 + Z_398_1_1 + Z_398_1_2 + Z_398_1_3
   + Z_398_1_4 <= 1
 constraint1_42712: Z_427_12_0 + Z_427_12_1 + Z_427_12_2 + Z_427_12_3
   + Z_427_12_4 <= 1
 constraint1_4272: Z_427_2_0 + Z_427_2_1 + Z_427_2_2 + Z_427_2_3
   + Z_427_2_4 <= 1
 constraint1_4273: Z_427_3_0 + Z_427_3_1 + Z_427_3_2 + Z_427_3_3
   + Z_427_3_4 <= 1
 constraint1_4275: Z_427_5_0 + Z_427_5_1 + Z_427_5_2 + Z_427_5_3
   + Z_427_5_4 <= 1
 constraint1_4271: Z_427_1_0 + Z_427_1_1 + Z_427_1_2 + Z_427_1_3
   + Z_427_1_4 <= 1
 constraint1_4274: Z_427_4_0 + Z_427_4_1 + Z_427_4_2 + Z_427_4_3
   + Z_427_4_4 <= 1
 constraint1_4270: Z_427_0_0 + Z_427_0_1 + Z_427_0_2 + Z_427_0_3
   + Z_427_0_4 <= 1
 constraint1_1570: Z_157_0_0 + Z_157_0_1 + Z_157_0_2 + Z_157_0_3
   + Z_157_0_4 <= 1
 constraint1_3825: Z_382_5_0 + Z_382_5_1 + Z_382_5_2 + Z_382_5_3
   + Z_382_5_4 <= 1
 constraint1_3821: Z_382_1_0 + Z_382_1_1 + Z_382_1_2 + Z_382_1_3
   + Z_382_1_4 <= 1
 constraint1_3822: Z_382_2_0 + Z_382_2_1 + Z_382_2_2 + Z_382_2_3
   + Z_382_2_4 <= 1
 constraint1_3826: Z_382_6_0 + Z_382_6_1 + Z_382_6_2 + Z_382_6_3
   + Z_382_6_4 <= 1
 constraint1_3823: Z_382_3_0 + Z_382_3_1 + Z_382_3_2 + Z_382_3_3
   + Z_382_3_4 <= 1
 constraint1_3820: Z_382_0_0 + Z_382_0_1 + Z_382_0_2 + Z_382_0_3
   + Z_382_0_4 <= 1
 constraint1_3824: Z_382_4_0 + Z_382_4_1 + Z_382_4_2 + Z_382_4_3
   + Z_382_4_4 <= 1
 constraint1_3940: Z_394_0_0 + Z_394_0_1 + Z_394_0_2 + Z_394_0_3
   + Z_394_0_4 <= 1
 constraint1_6760: Z_676_0_0 + Z_676_0_1 + Z_676_0_2 + Z_676_0_3
   + Z_676_0_4 <= 1
 constraint1_4261: Z_426_1_0 + Z_426_1_1 + Z_426_1_2 + Z_426_1_3
   + Z_426_1_4 <= 1
 constraint1_6550: Z_655_0_0 + Z_655_0_1 + Z_655_0_2 + Z_655_0_3
   + Z_655_0_4 <= 1
 constraint1_1114: Z_111_4_0 + Z_111_4_1 + Z_111_4_2 + Z_111_4_3
   + Z_111_4_4 <= 1
 constraint1_1112: Z_111_2_0 + Z_111_2_1 + Z_111_2_2 + Z_111_2_3
   + Z_111_2_4 <= 1
 constraint1_1115: Z_111_5_0 + Z_111_5_1 + Z_111_5_2 + Z_111_5_3
   + Z_111_5_4 <= 1
 constraint1_1113: Z_111_3_0 + Z_111_3_1 + Z_111_3_2 + Z_111_3_3
   + Z_111_3_4 <= 1
 constraint1_1110: Z_111_0_0 + Z_111_0_1 + Z_111_0_2 + Z_111_0_3
   + Z_111_0_4 <= 1
 constraint1_1111: Z_111_1_0 + Z_111_1_1 + Z_111_1_2 + Z_111_1_3
   + Z_111_1_4 <= 1
 constraint1_3360: Z_336_0_0 + Z_336_0_1 + Z_336_0_2 + Z_336_0_3
   + Z_336_0_4 <= 1
 constraint1_700: Z_70_0_0 + Z_70_0_1 + Z_70_0_2 + Z_70_0_3 + Z_70_0_4
   <= 1
 constraint1_2311: Z_231_1_0 + Z_231_1_1 + Z_231_1_2 + Z_231_1_3
   + Z_231_1_4 <= 1
 constraint1_2310: Z_231_0_0 + Z_231_0_1 + Z_231_0_2 + Z_231_0_3
   + Z_231_0_4 <= 1
 constraint1_2312: Z_231_2_0 + Z_231_2_1 + Z_231_2_2 + Z_231_2_3
   + Z_231_2_4 <= 1
 constraint1_3410: Z_341_0_0 + Z_341_0_1 + Z_341_0_2 + Z_341_0_3
   + Z_341_0_4 <= 1
 constraint1_780: Z_78_0_0 + Z_78_0_1 + Z_78_0_2 + Z_78_0_3 + Z_78_0_4
   <= 1
 constraint2_3720: Z_372_0_0 <= 1
 constraint2_3721: Z_372_0_1 <= 1
 constraint2_3722: Z_372_0_2 <= 1
 constraint2_3723: Z_372_0_3 <= 1
 constraint2_1520: Z_152_12_0 + Z_152_2_0 + Z_152_3_0 + Z_152_5_0
   + Z_152_1_0 + Z_152_4_0 + Z_152_0_0 <= 1
 constraint2_1521: Z_152_12_1 + Z_152_2_1 + Z_152_3_1 + Z_152_5_1
   + Z_152_1_1 + Z_152_4_1 + Z_152_0_1 <= 1
 constraint2_1522: Z_152_12_2 + Z_152_2_2 + Z_152_3_2 + Z_152_5_2
   + Z_152_1_2 + Z_152_4_2 + Z_152_0_2 <= 1
 constraint2_1523: Z_152_12_3 + Z_152_2_3 + Z_152_3_3 + Z_152_5_3
   + Z_152_1_3 + Z_152_4_3 + Z_152_0_3 <= 1
 constraint2_3370: <= 1
 constraint2_3371: <= 1
 constraint2_3372: <= 1
 constraint2_3373: <= 1
 constraint2_1640: Z_164_0_0 <= 1
 constraint2_1641: Z_164_0_1 <= 1
 constraint2_1642: Z_164_0_2 <= 1
 constraint2_1643: Z_164_0_3 <= 1
 constraint2_800: Z_80_4_0 + Z_80_3_0 + Z_80_2_0 + Z_80_1_0 + Z_80_6_0
   + Z_80_5_0 <= 1
 constraint2_801: Z_80_4_1 + Z_80_3_1 + Z_80_2_1 + Z_80_1_1 + Z_80_6_1
   + Z_80_5_1 <= 1
 constraint2_802: Z_80_4_2 + Z_80_3_2 + Z_80_2_2 + Z_80_1_2 + Z_80_6_2
   + Z_80_5_2 <= 1
 constraint2_803: Z_80_4_3 + Z_80_3_3 + Z_80_2_3 + Z_80_1_3 + Z_80_6_3
   + Z_80_5_3 <= 1
 constraint2_1240: Z_124_0_0 <= 1
 constraint2_1241: Z_124_0_1 <= 1
 constraint2_1242: Z_124_0_2 <= 1
 constraint2_1243: Z_124_0_3 <= 1
 constraint2_6110: <= 1
 constraint2_6111: <= 1
 constraint2_6112: <= 1
 constraint2_6113: <= 1
 constraint2_1770: Z_177_0_0 <= 1
 constraint2_1771: Z_177_0_1 <= 1
 constraint2_1772: Z_177_0_2 <= 1
 constraint2_1773: Z_177_0_3 <= 1
 constraint2_1620: <= 1
 constraint2_1621: <= 1
 constraint2_1622: <= 1
 constraint2_1623: <= 1
 constraint2_2200: Z_220_0_0 <= 1
 constraint2_2201: Z_220_0_1 <= 1
 constraint2_2202: Z_220_0_2 <= 1
 constraint2_2203: Z_220_0_3 <= 1
 constraint2_1650: Z_165_0_0 <= 1
 constraint2_1651: Z_165_0_1 <= 1
 constraint2_1652: Z_165_0_2 <= 1
 constraint2_1653: Z_165_0_3 <= 1
 constraint2_240: Z_24_0_0 <= 1
 constraint2_241: Z_24_0_1 <= 1
 constraint2_242: Z_24_0_2 <= 1
 constraint2_243: Z_24_0_3 <= 1
 constraint2_1800: Z_180_1_0 + Z_180_0_0 <= 1
 constraint2_1801: Z_180_1_1 + Z_180_0_1 <= 1
 constraint2_1802: Z_180_1_2 + Z_180_0_2 <= 1
 constraint2_1803: Z_180_1_3 + Z_180_0_3 <= 1
 constraint2_2180: <= 1
 constraint2_2181: <= 1
 constraint2_2182: <= 1
 constraint2_2183: <= 1
 constraint2_210: Z_21_1_0 <= 1
 constraint2_211: Z_21_1_1 <= 1
 constraint2_212: Z_21_1_2 <= 1
 constraint2_213: Z_21_1_3 <= 1
 constraint2_3320: <= 1
 constraint2_3321: <= 1
 constraint2_3322: <= 1
 constraint2_3323: <= 1
 constraint2_4320: Z_432_7_0 + Z_432_6_0 + Z_432_3_0 + Z_432_0_0
   + Z_432_5_0 + Z_432_2_0 + Z_432_4_0 <= 1
 constraint2_4321: Z_432_7_1 + Z_432_6_1 + Z_432_3_1 + Z_432_0_1
   + Z_432_5_1 + Z_432_2_1 + Z_432_4_1 <= 1
 constraint2_4322: Z_432_7_2 + Z_432_6_2 + Z_432_3_2 + Z_432_0_2
   + Z_432_5_2 + Z_432_2_2 + Z_432_4_2 <= 1
 constraint2_4323: Z_432_7_3 + Z_432_6_3 + Z_432_3_3 + Z_432_0_3
   + Z_432_5_3 + Z_432_2_3 + Z_432_4_3 <= 1
 constraint2_4300: Z_430_0_0 <= 1
 constraint2_4301: Z_430_0_1 <= 1
 constraint2_4302: Z_430_0_2 <= 1
 constraint2_4303: Z_430_0_3 <= 1
 constraint2_1210: <= 1
 constraint2_1211: <= 1
 constraint2_1212: <= 1
 constraint2_1213: <= 1
 constraint2_690: Z_69_0_0 + Z_69_1_0 <= 1
 constraint2_691: Z_69_0_1 + Z_69_1_1 <= 1
 constraint2_692: Z_69_0_2 + Z_69_1_2 <= 1
 constraint2_693: Z_69_0_3 + Z_69_1_3 <= 1
 constraint2_3210: Z_321_0_0 <= 1
 constraint2_3211: Z_321_0_1 <= 1
 constraint2_3212: Z_321_0_2 <= 1
 constraint2_3213: Z_321_0_3 <= 1
 constraint2_1740: Z_174_1_0 + Z_174_2_0 + Z_174_0_0 + Z_174_3_0
   + Z_174_5_0 + Z_174_4_0 <= 1
 constraint2_1741: Z_174_1_1 + Z_174_2_1 + Z_174_0_1 + Z_174_3_1
   + Z_174_5_1 + Z_174_4_1 <= 1
 constraint2_1742: Z_174_1_2 + Z_174_2_2 + Z_174_0_2 + Z_174_3_2
   + Z_174_5_2 + Z_174_4_2 <= 1
 constraint2_1743: Z_174_1_3 + Z_174_2_3 + Z_174_0_3 + Z_174_3_3
   + Z_174_5_3 + Z_174_4_3 <= 1
 constraint2_5560: Z_556_4_0 + Z_556_3_0 + Z_556_1_0 + Z_556_0_0
   + Z_556_5_0 + Z_556_2_0 <= 1
 constraint2_5561: Z_556_4_1 + Z_556_3_1 + Z_556_1_1 + Z_556_0_1
   + Z_556_5_1 + Z_556_2_1 <= 1
 constraint2_5562: Z_556_4_2 + Z_556_3_2 + Z_556_1_2 + Z_556_0_2
   + Z_556_5_2 + Z_556_2_2 <= 1
 constraint2_5563: Z_556_4_3 + Z_556_3_3 + Z_556_1_3 + Z_556_0_3
   + Z_556_5_3 + Z_556_2_3 <= 1
 constraint2_6400: <= 1
 constraint2_6401: <= 1
 constraint2_6402: <= 1
 constraint2_6403: <= 1
 constraint2_560: Z_56_4_0 + Z_56_3_0 + Z_56_1_0 + Z_56_2_0 + Z_56_0_0
   <= 1
 constraint2_561: Z_56_4_1 + Z_56_3_1 + Z_56_1_1 + Z_56_2_1 + Z_56_0_1
   <= 1
 constraint2_562: Z_56_4_2 + Z_56_3_2 + Z_56_1_2 + Z_56_2_2 + Z_56_0_2
   <= 1
 constraint2_563: Z_56_4_3 + Z_56_3_3 + Z_56_1_3 + Z_56_2_3 + Z_56_0_3
   <= 1
 constraint2_3980: Z_398_1_0 <= 1
 constraint2_3981: Z_398_1_1 <= 1
 constraint2_3982: Z_398_1_2 <= 1
 constraint2_3983: Z_398_1_3 <= 1
 constraint2_4270: Z_427_12_0 + Z_427_2_0 + Z_427_3_0 + Z_427_5_0
   + Z_427_1_0 + Z_427_4_0 + Z_427_0_0 <= 1
 constraint2_4271: Z_427_12_1 + Z_427_2_1 + Z_427_3_1 + Z_427_5_1
   + Z_427_1_1 + Z_427_4_1 + Z_427_0_1 <= 1
 constraint2_4272: Z_427_12_2 + Z_427_2_2 + Z_427_3_2 + Z_427_5_2
   + Z_427_1_2 + Z_427_4_2 + Z_427_0_2 <= 1
 constraint2_4273: Z_427_12_3 + Z_427_2_3 + Z_427_3_3 + Z_427_5_3
   + Z_427_1_3 + Z_427_4_3 + Z_427_0_3 <= 1
 constraint2_1570: Z_157_0_0 <= 1
 constraint2_1571: Z_157_0_1 <= 1
 constraint2_1572: Z_157_0_2 <= 1
 constraint2_1573: Z_157_0_3 <= 1
 constraint2_2390: <= 1
 constraint2_2391: <= 1
 constraint2_2392: <= 1
 constraint2_2393: <= 1
 constraint2_3820: Z_382_5_0 + Z_382_1_0 + Z_382_2_0 + Z_382_6_0
   + Z_382_3_0 + Z_382_0_0 + Z_382_4_0 <= 1
 constraint2_3821: Z_382_5_1 + Z_382_1_1 + Z_382_2_1 + Z_382_6_1
   + Z_382_3_1 + Z_382_0_1 + Z_382_4_1 <= 1
 constraint2_3822: Z_382_5_2 + Z_382_1_2 + Z_382_2_2 + Z_382_6_2
   + Z_382_3_2 + Z_382_0_2 + Z_382_4_2 <= 1
 constraint2_3823: Z_382_5_3 + Z_382_1_3 + Z_382_2_3 + Z_382_6_3
   + Z_382_3_3 + Z_382_0_3 + Z_382_4_3 <= 1
 constraint2_3940: Z_394_0_0 <= 1
 constraint2_3941: Z_394_0_1 <= 1
 constraint2_3942: Z_394_0_2 <= 1
 constraint2_3943: Z_394_0_3 <= 1
 constraint2_6730: <= 1
 constraint2_6731: <= 1
 constraint2_6732: <= 1
 constraint2_6733: <= 1
 constraint2_6760: Z_676_0_0 <= 1
 constraint2_6761: Z_676_0_1 <= 1
 constraint2_6762: Z_676_0_2 <= 1
 constraint2_6763: Z_676_0_3 <= 1
 constraint2_4260: Z_426_1_0 <= 1
 constraint2_4261: Z_426_1_1 <= 1
 constraint2_4262: Z_426_1_2 <= 1
 constraint2_4263: Z_426_1_3 <= 1
 constraint2_6550: Z_655_0_0 <= 1
 constraint2_6551: Z_655_0_1 <= 1
 constraint2_6552: Z_655_0_2 <= 1
 constraint2_6553: Z_655_0_3 <= 1
 constraint2_1110: Z_111_4_0 + Z_111_2_0 + Z_111_5_0 + Z_111_3_0
   + Z_111_0_0 + Z_111_1_0 <= 1
 constraint2_1111: Z_111_4_1 + Z_111_2_1 + Z_111_5_1 + Z_111_3_1
   + Z_111_0_1 + Z_111_1_1 <= 1
 constraint2_1112: Z_111_4_2 + Z_111_2_2 + Z_111_5_2 + Z_111_3_2
   + Z_111_0_2 + Z_111_1_2 <= 1
 constraint2_1113: Z_111_4_3 + Z_111_2_3 + Z_111_5_3 + Z_111_3_3
   + Z_111_0_3 + Z_111_1_3 <= 1
 constraint2_3360: Z_336_0_0 <= 1
 constraint2_3361: Z_336_0_1 <= 1
 constraint2_3362: Z_336_0_2 <= 1
 constraint2_3363: Z_336_0_3 <= 1
 constraint2_700: Z_70_0_0 <= 1
 constraint2_701: Z_70_0_1 <= 1
 constraint2_702: Z_70_0_2 <= 1
 constraint2_703: Z_70_0_3 <= 1
 constraint2_2310: Z_231_1_0 + Z_231_0_0 + Z_231_2_0 <= 1
 constraint2_2311: Z_231_1_1 + Z_231_0_1 + Z_231_2_1 <= 1
 constraint2_2312: Z_231_1_2 + Z_231_0_2 + Z_231_2_2 <= 1
 constraint2_2313: Z_231_1_3 + Z_231_0_3 + Z_231_2_3 <= 1
 constraint2_6860: <= 1
 constraint2_6861: <= 1
 constraint2_6862: <= 1
 constraint2_6863: <= 1
 constraint2_6560: <= 1
 constraint2_6561: <= 1
 constraint2_6562: <= 1
 constraint2_6563: <= 1
 constraint2_3410: Z_341_0_0 <= 1
 constraint2_3411: Z_341_0_1 <= 1
 constraint2_3412: Z_341_0_2 <= 1
 constraint2_3413: Z_341_0_3 <= 1
 constraint2_780: Z_78_0_0 <= 1
 constraint2_781: Z_78_0_1 <= 1
 constraint2_782: Z_78_0_2 <= 1
 constraint2_783: Z_78_0_3 <= 1
Bounds
Binaries
 Z_372_0_0 Z_372_0_1 Z_372_0_2 Z_372_0_3 Z_372_0_4 Z_152_12_0 Z_152_12_1
 Z_152_12_2 Z_152_12_3 Z_152_12_4 Z_152_2_0 Z_152_2_1 Z_152_2_2 Z_152_2_3
 Z_152_2_4 Z_152_3_0 Z_152_3_1 Z_152_3_2 Z_152_3_3 Z_152_3_4 Z_152_5_0
 Z_152_5_1 Z_152_5_2 Z_152_5_3 Z_152_5_4 Z_152_1_0 Z_152_1_1 Z_152_1_2
 Z_152_1_3 Z_152_1_4 Z_152_4_0 Z_152_4_1 Z_152_4_2 Z_152_4_3 Z_152_4_4
 Z_152_0_0 Z_152_0_1 Z_152_0_2 Z_152_0_3 Z_152_0_4 Z_164_0_0 Z_164_0_1
 Z_164_0_2 Z_164_0_3 Z_164_0_4 Z_80_4_0 Z_80_4_1 Z_80_4_2 Z_80_4_3 Z_80_4_4
 Z_80_3_0 Z_80_3_1 Z_80_3_2 Z_80_3_3 Z_80_3_4 Z_80_2_0 Z_80_2_1 Z_80_2_2
 Z_80_2_3 Z_80_2_4 Z_80_1_0 Z_80_1_1 Z_80_1_2 Z_80_1_3 Z_80_1_4 Z_80_6_0
 Z_80_6_1 Z_80_6_2 Z_80_6_3 Z_80_6_4 Z_80_5_0 Z_80_5_1 Z_80_5_2 Z_80_5_3
 Z_80_5_4 Z_124_0_0 Z_124_0_1 Z_124_0_2 Z_124_0_3 Z_124_0_4 Z_177_0_0
 Z_177_0_1 Z_177_0_2 Z_177_0_3 Z_177_0_4 Z_220_0_0 Z_220_0_1 Z_220_0_2
 Z_220_0_3 Z_220_0_4 Z_165_0_0 Z_165_0_1 Z_165_0_2 Z_165_0_3 Z_165_0_4
 Z_24_0_0 Z_24_0_1 Z_24_0_2 Z_24_0_3 Z_24_0_4 Z_180_1_0 Z_180_1_1 Z_180_1_2
 Z_180_1_3 Z_180_1_4 Z_180_0_0 Z_180_0_1 Z_180_0_2 Z_180_0_3 Z_180_0_4
 Z_21_1_0 Z_21_1_1 Z_21_1_2 Z_21_1_3 Z_21_1_4 Z_432_7_0 Z_432_7_1 Z_432_7_2
 Z_432_7_3 Z_432_7_4 Z_432_6_0 Z_432_6_1 Z_432_6_2 Z_432_6_3 Z_432_6_4
 Z_432_3_0 Z_432_3_1 Z_432_3_2 Z_432_3_3 Z_432_3_4 Z_432_0_0 Z_432_0_1
 Z_432_0_2 Z_432_0_3 Z_432_0_4 Z_432_5_0 Z_432_5_1 Z_432_5_2 Z_432_5_3
 Z_432_5_4 Z_432_2_0 Z_432_2_1 Z_432_2_2 Z_432_2_3 Z_432_2_4 Z_432_4_0
 Z_432_4_1 Z_432_4_2 Z_432_4_3 Z_432_4_4 Z_430_0_0 Z_430_0_1 Z_430_0_2
 Z_430_0_3 Z_430_0_4 Z_69_0_0 Z_69_0_1 Z_69_0_2 Z_69_0_3 Z_69_0_4 Z_69_1_0
 Z_69_1_1 Z_69_1_2 Z_69_1_3 Z_69_1_4 Z_321_0_0 Z_321_0_1 Z_321_0_2
 Z_321_0_3 Z_321_0_4 Z_174_1_0 Z_174_1_1 Z_174_1_2 Z_174_1_3 Z_174_1_4
 Z_174_2_0 Z_174_2_1 Z_174_2_2 Z_174_2_3 Z_174_2_4 Z_174_0_0 Z_174_0_1
 Z_174_0_2 Z_174_0_3 Z_174_0_4 Z_174_3_0 Z_174_3_1 Z_174_3_2 Z_174_3_3
 Z_174_3_4 Z_174_5_0 Z_174_5_1 Z_174_5_2 Z_174_5_3 Z_174_5_4 Z_174_4_0
 Z_174_4_1 Z_174_4_2 Z_174_4_3 Z_174_4_4 Z_556_4_0 Z_556_4_1 Z_556_4_2
 Z_556_4_3 Z_556_4_4 Z_556_3_0 Z_556_3_1 Z_556_3_2 Z_556_3_3 Z_556_3_4
 Z_556_1_0 Z_556_1_1 Z_556_1_2 Z_556_1_3 Z_556_1_4 Z_556_0_0 Z_556_0_1
 Z_556_0_2 Z_556_0_3 Z_556_0_4 Z_556_5_0 Z_556_5_1 Z_556_5_2 Z_556_5_3
 Z_556_5_4 Z_556_2_0 Z_556_2_1 Z_556_2_2 Z_556_2_3 Z_556_2_4 Z_56_4_0
 Z_56_4_1 Z_56_4_2 Z_56_4_3 Z_56_4_4 Z_56_3_0 Z_56_3_1 Z_56_3_2 Z_56_3_3
 Z_56_3_4 Z_56_1_0 Z_56_1_1 Z_56_1_2 Z_56_1_3 Z_56_1_4 Z_56_2_0 Z_56_2_1
 Z_56_2_2 Z_56_2_3 Z_56_2_4 Z_56_0_0 Z_56_0_1 Z_56_0_2 Z_56_0_3 Z_56_0_4
 Z_398_1_0 Z_398_1_1 Z_398_1_2 Z_398_1_3 Z_398_1_4 Z_427_12_0 Z_427_12_1
 Z_427_12_2 Z_427_12_3 Z_427_12_4 Z_427_2_0 Z_427_2_1 Z_427_2_2 Z_427_2_3
 Z_427_2_4 Z_427_3_0 Z_427_3_1 Z_427_3_2 Z_427_3_3 Z_427_3_4 Z_427_5_0
 Z_427_5_1 Z_427_5_2 Z_427_5_3 Z_427_5_4 Z_427_1_0 Z_427_1_1 Z_427_1_2
 Z_427_1_3 Z_427_1_4 Z_427_4_0 Z_427_4_1 Z_427_4_2 Z_427_4_3 Z_427_4_4
 Z_427_0_0 Z_427_0_1 Z_427_0_2 Z_427_0_3 Z_427_0_4 Z_157_0_0 Z_157_0_1
 Z_157_0_2 Z_157_0_3 Z_157_0_4 Z_382_5_0 Z_382_5_1 Z_382_5_2 Z_382_5_3
 Z_382_5_4 Z_382_1_0 Z_382_1_1 Z_382_1_2 Z_382_1_3 Z_382_1_4 Z_382_2_0
 Z_382_2_1 Z_382_2_2 Z_382_2_3 Z_382_2_4 Z_382_6_0 Z_382_6_1 Z_382_6_2
 Z_382_6_3 Z_382_6_4 Z_382_3_0 Z_382_3_1 Z_382_3_2 Z_382_3_3 Z_382_3_4
 Z_382_0_0 Z_382_0_1 Z_382_0_2 Z_382_0_3 Z_382_0_4 Z_382_4_0 Z_382_4_1
 Z_382_4_2 Z_382_4_3 Z_382_4_4 Z_394_0_0 Z_394_0_1 Z_394_0_2 Z_394_0_3
 Z_394_0_4 Z_676_0_0 Z_676_0_1 Z_676_0_2 Z_676_0_3 Z_676_0_4 Z_426_1_0
 Z_426_1_1 Z_426_1_2 Z_426_1_3 Z_426_1_4 Z_655_0_0 Z_655_0_1 Z_655_0_2
 Z_655_0_3 Z_655_0_4 Z_111_4_0 Z_111_4_1 Z_111_4_2 Z_111_4_3 Z_111_4_4
 Z_111_2_0 Z_111_2_1 Z_111_2_2 Z_111_2_3 Z_111_2_4 Z_111_5_0 Z_111_5_1
 Z_111_5_2 Z_111_5_3 Z_111_5_4 Z_111_3_0 Z_111_3_1 Z_111_3_2 Z_111_3_3
 Z_111_3_4 Z_111_0_0 Z_111_0_1 Z_111_0_2 Z_111_0_3 Z_111_0_4 Z_111_1_0
 Z_111_1_1 Z_111_1_2 Z_111_1_3 Z_111_1_4 Z_336_0_0 Z_336_0_1 Z_336_0_2
 Z_336_0_3 Z_336_0_4 Z_70_0_0 Z_70_0_1 Z_70_0_2 Z_70_0_3 Z_70_0_4 Z_231_1_0
 Z_231_1_1 Z_231_1_2 Z_231_1_3 Z_231_1_4 Z_231_0_0 Z_231_0_1 Z_231_0_2
 Z_231_0_3 Z_231_0_4 Z_231_2_0 Z_231_2_1 Z_231_2_2 Z_231_2_3 Z_231_2_4
 Z_341_0_0 Z_341_0_1 Z_341_0_2 Z_341_0_3 Z_341_0_4 Z_78_0_0 Z_78_0_1
 Z_78_0_2 Z_78_0_3 Z_78_0_4
End
